
 102   30
  10   10   10   10   10   10   10   10   10   10   10   10   10   10   10   10   10   10   10   10   10   10   10   10   10   10   10   10   10   10

   0   0   0   0   0   0   0   0   0   0   0   0   0   0   0   0   0   0   0   0   0   0   0   0   0   0   0   0   0   0   0  23 2 3 4 5 6 7 8 9 10 11 12 13 16 18 19 20 21 22 23 24 36 39 42 
   9   0   0   0   0   0   0   3   0   2   0   0   0   0   0   0   0   0   0   0   0   0   0   0   0   0   0   1   0   0   0  13 68 54 53 50 43 33 29 28 27 26 17 15 14 
   1   0   1   0   0   0   0   0   0   0   0   0   0   0   0   2   0   0   0   1   2   0   4   0   0   0   0   0   0   0   0  18 93 72 71 70 69 68 64 63 60 58 57 51 50 48 47 38 37 28 
   2   1   0   0   0   0   0   0   0   0   0   1   0   0   2   0   0   1   0   0   0   0   0   0   0   0   0   0   0   1   0  15 100 99 70 69 63 61 53 51 49 48 47 41 33 32 25 
   8   5   0   0   0   0   0   0   0   0   0   0   0   0   0   0   0   0   0   0   8   1   0   0   0   1   0   0   2   0   0  12 73 64 52 51 50 48 44 38 35 34 31 30 
   2   0   0   0   0   0   0   0   0   0   0   0   0   0   0   0   0   0   0   6   0   4   0   0   0   0   0   0   0   0   3  15 73 70 67 64 63 62 60 55 50 48 47 45 44 32 30 
   3   0   0   0   0   0   0   0   0   0   0   0   0   1   0   0   0   9   0   0   0   0   0   1   0   0   0   0   0   5   0  11 93 72 71 70 68 63 62 60 52 40 17 
   4   0   0   0   0   1   0   0   0   0   0   0   0   0   3   0   0   0   0   0   0   0   0   0   2   0   0   6   0   0   0  25 101 100 96 95 90 71 70 69 68 66 64 63 62 61 60 56 54 51 50 49 47 46 45 41 40 
   5   0   0   0   0   7   5   0   0   0   0   6   0   0   0   5   0   0   2   9   0   0   0   0   0   0   0   0   0   0   0  14 101 67 64 63 60 58 56 55 52 48 47 44 38 30 
   9   0   0   0   0   0   0   0   0   0   0   0   0   0   0   0   0   0   0   0   0   0   0  10   0   0   0   0   4   0   0  13 99 68 63 60 57 56 49 48 44 43 40 38 31 
   2   0   8   0   0   0   0   0   1   0   0   0   0   0   0   0   1   0   0   0   0   9   0   0   0   4   0   0   0   0   0  22 101 100 99 98 90 73 72 71 69 67 66 64 61 60 58 57 53 51 49 47 44 41 
   2   0   0   0   0   9   0   0   6   0   0   0   0   0   0   0   0   0   0   0   0   0   6   0   0   0   0   0   0   0   0  15 99 96 71 70 68 67 64 63 60 52 49 47 40 38 33 
   6   0   0   0   0   0   0   0   0   0   0   0   0   8   8   0   0   0   0   0   0   0   0   0   0   2   0   0   0   0   0  17 101 99 97 95 90 81 73 70 67 60 58 57 56 51 48 41 30 
   1   0   0   0   0   0   0   0   0   0   5   8   0   0   0   0   0   0   0   0   0   0   0   0   7   0   0   0   0   0   0  17 100 96 87 73 69 67 64 63 62 61 58 56 52 51 47 46 40 
   6   0   0   5   0   0   0   0   0   0   0   0   0   0   0   0   5   0   0   0   0   8   0   5   0   8   0   0   5   3   0  15 100 99 94 73 72 70 69 61 57 52 46 45 44 40 35 
   1   0   0   0   0   0   0   0   6   0   0   0   0   0   0   0   0   0   0   0   0   8   0   0   0   0   0   0   4   0   0  20 99 96 95 93 92 90 88 72 70 69 68 67 64 63 61 60 55 48 47 45 
   7   0   0   0   0   0   0   0   0   0   0   0   0   0   0   0   4   0   7   0   0   0   0   0   0   0   0   0   0   0   4  19 101 100 99 96 95 90 88 73 69 67 65 64 61 59 57 51 48 47 45 
   3   0   0   0   0   0   0   0   0   0   0   0   1   0   0   0   0   0   0   0   0   0   0   0   6   0   0   0   7   0   9  16 99 97 96 95 94 90 73 72 71 69 63 60 54 49 48 46 
   1   0   0   0   0   0   0   0   8   0   4   6   5   0   0   0   0   0   3   0   4   0   0   0   0   0   0   0   0   6   0  14 91 72 70 68 67 63 62 61 56 54 51 50 46 34 
   9   0   0   0   0   0   0   0   0   0   3   0   0   4   0   0   0   0   0   0   9   0   0   0   4   8   0   0   0   0   0  15 99 97 96 94 85 83 68 67 65 64 62 59 56 52 48 
   8   0   0   0   1   0   0   0   0   0   0   0   0   0   4   0   0   0   0   6   0   0   0   0   6   0   0   0   0   0   0  15 101 98 90 89 71 69 68 66 64 63 62 60 59 46 45 
   1   0   0   0   0   0   0   0   0   0   0   0   0   0   0   0   7   0   0   3   0   0   0   0   7   0   0   0   0   7   0  14 97 94 92 89 88 68 67 66 65 62 60 59 52 45 
   1   7   0   6   6   0   0   0   0   0   0   0   0   0   0   0   0   0   0   0   0   0   0   0   0   0   0   0   0   0   0  15 100 99 98 97 96 90 89 88 77 68 66 65 60 51 45 
   8   0   0   3   0   0   0   0   7   0   0   0   3   0   5   0   0   0   0   0   2   0   9   0   0   0   1   0   7   0   0  12 95 90 89 77 73 71 68 67 66 59 46 45 
   1   9   0   0   0   0   4   0   6   0   0   7   9   0   0   0   0   0   0   0   5   0   0   0   0   0   0   0   0   0   0  13 101 97 96 94 93 88 77 71 67 60 59 58 45 
   3   0   0   0   0   3   0   0   6   0   3   0   0   0   0   0   0   0   0   0   0   0   0   0   7   0   0   0   0   0   0  14 94 92 90 85 84 83 82 71 70 65 63 62 57 48 
   9   0   0   0   0   0   0   0   0   8   0   0   7   0   0   5   0   0   0   0   0   0   0   0   0   0   0   0   0   8   0  10 99 94 90 89 88 80 70 65 49 45 
   1   0   0   0   0   0   0   0   0   0   0   5   0   0   0   0   0   0   0   0   0   0   0   0   0   0   0   0   0   8   0  16 98 96 95 90 88 83 80 79 78 77 76 66 65 62 61 59 
   3   0   0   0   0   0   0   3   0   0   0   0   0   0   0   0   0   0   0   0   0   0   0   0   0   0   9   0   0   0   0  11 96 95 94 93 90 89 77 69 65 59 45 
   9   0   0   0   0   0   0   0   0   8   7   0   8   0   0   0   0   0   0   0   0   0   0   0   0   0   0   0   0   0   0  18 100 96 93 92 91 89 88 87 85 79 77 76 75 72 69 68 65 61 
   1   7   0   0   0   0   0   0   0   0   0   0   7   0   2   0   0   0  10   0   0   0   0   0   0   0   0   0   0   0   0  16 100 95 94 92 90 89 88 87 86 85 80 78 71 70 67 62 
  10   0   0   0   0   0   0   0   0   4   0   0   0   0   0   0   0   0   0   0   5   0   0   0   0   0   0   0   0   0   0  10 95 90 89 87 86 84 81 78 56 46 
   1   0   0   0   0   0   0   0   0   0   4   0   0   0   0   0   0   0   0   0   4   5   0   0   0   0   0   9   0   0   0   9 90 86 84 78 65 62 59 56 46 
   8   0   6   0   0   8   0   0   0   0   6   0   0   0   0   0   0   7   0   0   0   0   0   0   0   0   0   4   0   0   0  10 97 90 89 88 80 77 74 60 59 45 
   5   0   0   0   0   5   0   0   0   0   6   0   0   0   0   0   0   0   0   2   0   0   0   0   1   4   0   0   0   0   0  14 95 92 89 88 87 86 85 84 83 80 77 74 60 59 
   9   0   0   0   0   0   0   0   0   0   7   0   0   0   0   0   0   0   0   0   0   0   0   0   0   7   0   0   0   0   0  14 101 97 94 92 90 89 88 84 81 78 77 74 72 64 
   4   0   0   0   0   0   0   0   0   0   0   0   0   0   0   0   0   0   0   0   0   0   0   0   0   0   0   0   0   0   6  13 99 88 87 86 83 81 80 77 76 75 73 67 61 
   9   0   9   0   0   0   7   7   0   0   0   0   0   0   0   0   0   0   0   0   0   8   0   0   0   0   0   0   0   0   0   7 100 94 88 77 74 59 45 
   7   0   0   0   0   0   0   0   0   0   6   0   5   0   8   0   0   0   0  10   0   6   0   7   0   0   0   0   6   0   0  12 99 97 93 91 87 81 80 79 77 76 66 65 
   6   0   0   0   0   6   0   0   0   6  10   0   8   0   0   0   0   0   0   0   0   0   0   0   8   0   0   0   5   0   0  10 98 89 85 83 81 79 78 76 65 59 
   6   0   0   0   0   0   0   0   0   0   3   6   0   0   8   0   0   0   0   5   0   0   0   0   0   0   0   0   4   0  10  11 94 91 86 83 80 79 78 77 76 75 65 
   4   0   0   0   9   0   0   0   0   0   0   0   0   0   0  10   9   0   0   0   0   0   0   0   4   0   0   0   7   0   0  11 93 91 86 85 83 82 80 79 77 75 65 
  10   0   0   0   0   0   0   0   0   0   0   4   0   5   0   0   0   0   0   0   0   7   0   0   0   0   0   0   0   0   8   9 90 83 82 81 76 75 66 65 61 
   4   0   0   0   0   0   0   0   0   7   0   0   0   0   0   0   3   0   0   0   0   0   0   8   0   0   0   0   0   4   0  11 96 93 91 89 88 84 82 81 79 76 74 
  10   0   0   0   0   0   0   0   0   0   0   0   0   8   0   0   0   0   0   0   0   0   0   0   0   0   0   0   0   0   0  10 87 85 84 83 82 81 79 78 76 75 
   3   0   0   0   0   0   0   0   0   0   0   0   0   0   0   0   0   0   0   8   0   7   4   0   0   0   0   0   4   0   0   9 93 92 88 85 83 82 79 75 74 
   8   0   0   0   0   0   0   6   0   0   0   0   0   0   0   0   0   6   0   7   0   0   0   0   0   5   0   0   0   6   0   8 97 94 91 84 81 78 75 74 
   6   8   0   5   0   0   0   0   0   0   0   0   0   0   0   0   0   0   7   0   0   0   0   5   0   0   0   0   5   0   0   7 98 89 87 80 79 77 66 
   5   0   0   0   0   0   0   0   0   3   0   0   0   0   3   0   9   0   0   0   0   0   0   0   0   0   0   0   0  10   0   6 84 83 81 78 77 59 
   4   0   0   0   0   5   0   0   0   0   0   0   0  10   0   0   0   0   7   0   0   0   0   0   0   0   0   0  10   0   0   5 99 87 83 78 59 
  10   0   0   0   0   0   4   0   0   0   0   0   0   0   0   0   0   0   0   7   0   0   0   8   0   0   0   0   0   0   0   6 92 83 82 78 75 74 
   8   0   0   0   0   0   0   0   0   0   0   0   0   0   0   0   0   0   0   0   0   0   0   0   0   0   6   0   0   0   2   6 95 91 90 78 77 76 
   5   0   0   0   0   0   0   0   0   0   0   0   0   0   0   0   0   0   0   0   0   0   0   0   0   0   0   0   0   0   0   6 86 85 79 78 77 76 
   4   0   0   0   0   0   0   0   0   0   0   0   0  10   0   0   9   0   0   5  10   3   0   0   0   0   0   0   0   0   0   5 88 86 81 77 65 
   7   3   0   0   5   0   0   0   3   0   0   0   0   0   0   3   0   0   0   0   0   0   0   0   0   0   0   0   0   0   0   5 85 82 79 76 74 
   7   0   0   0   0   0   0   0   0   0   6   7   0   0   0   5   0   0   3   0   0   0   0   0   0   0   0   0   0   0   0   4 93 80 77 74 
   6   0   0   0   0   0   0   0   0   0   0   6   0   0   0   9   0   5   0   0   0   0   0   0   7   0   0   0   0   0   0   4 89 87 80 75 
   1   0   0  10   0   0   3   0   0   0   0   0   0   0   3   0   0   0   0   9   0   0   0   0   0   0   9   0   0   0   0   3 86 80 65 
   2   0   0  10   0   9   0   0   0   8   7   9   0   0   0   0   0   0   0   0   0   0   0   0   0   0   0   0   0   0   0   2 82 75 
   2   6   0   0   0   0   0   0   0   0   0   5   0   0   0   0   0   0   0   0   0   0   0   0   0   0   0   0   7   0   0   2 78 76 
   3   0   0   0   0   7   0   0   0   0   0   0   0   0   0   0   0   0   0   0   0   0   0   0  10   0   0   0   0   0   0   2 84 74 
   5   0   0   0   0   0   0   0   0   0   0   0   0   0   6   0   0   0   0   5   0   0   0   0   0   0   0   0   6   0   0   2 81 75 
   4   0   0   0   0   0   0   0   0   0   9   0   0   0   0   0   0   0   0   0   0   0   0   0   0   0   0   8   0   9   0   2 77 74 
   4   6   0   0   0   0   0   4   0   7   0   0   0   0   0   0   0   7   8   0   0   0   0   0   0   0   0   0   0   0   0   2 76 75 
   8   0   0   0  10   0   0   0   0   0   0   0   0   4   0   0   0   0   5   0   0   9   0   0   0   0   0   0   0   0   0   1 74 
   1   0   0   6   3   0   0   0   5  10   0   0   0   0   0   0   0   0   0   0   0   0   0   0   0   7   0   7   0   0   0   1 86 
   5   0   0   0   0   0   0   0   0   0   0   0   0   0   0   0   0   0   0   0   0   0   0   0   0   0   0   0   0   0   0   1 79 
   6   0   0   0   0   6   0   0   8   0   5   0   0   0   0   0   0   0   0   0   0   0   0   0   0   0   0   0   0   0   0   1 80 
   9   0   0   3   0   0   0   0   0   0   0   0   0   0   0   0   0   0   9   0   0   0   0   0   0   8   0   0   0   6   0   1 74 
   4   0   0   0   4   0   9   0   0   0   0   0   0   0   0   0   0   0   0   0   0   0   0   0   0   0   0   0   6   0   0   1 76 
   5   0   0   0   0   0   0   0   0   0   0   0   0   5  10   0   0   0   0   0   0   4   0   0   0   6   0   0   0   0   6   1 91 
  10   0   0   0   5   0   4   0   0   0   8   0   4   0   0   8   0   0   0   0   0   0   0   0   0   0   0   0   0   0   0   1 80 
   8   0   0   0   0   0  10   0   7   0   0   9   0   0   0   0   0   0   0   0   0   0   0   8   0   0   0   0   0   0   0   1 78 
  10   0   0   0   9   0  10   8   0   4   0   0   0   0   0   0   0   0   0   0   0   0   0   0   0   0   0   4   0   0   0   1 102
   4   0   0   0   0   0   0  10   0   7   0   0   0   0   0   0   0   5   5   0   7   0   0   0   0   0   0   0   0   0   0   1 102
   3   0   0   0   0   7   3   0   0   0   0   0   0   0   0   0   0   9   0   0   0   0   0   0   0   8   0   0   0   0   0   1 102
   6   0   5   0   9   0   0   0   0   0   0   0   0   0   8   6   0   0   0   1   0   6   0   0   0   0   0   7   0   0   0   1 102
  10   7   0   0   0   0   0   8   0   0   8   0   0   0   0   0   0   0   0   0   0   0   0   0   0   0   0   0   0   0   0   1 102
  10   0   0   0   0   0   0   6   0   0   0   0   0   0   0   0   0   0   0   0   0   0   0   0   0   0   0   0   0   0   0   1 102
   1   0   0   0   0   0   0   0   0   0   0   0   0   0   0   0   0   0   0   0   0   0   0   0   0   0   0   0   0   0   0   1 102
   6   0   0   0   0   0   0   0   0   0   0   0   0   0   0   0   0   0   7   0   0   0   0   0   0   0   0   0  10   0   6   1 102
   3   0   0   0   0   0   0   5   0   0   0   0   0   0   0   8   0   0   0   0   0   0   0   0   0   0   0   0   0   0   0   1 102
   7   0   0   0   5   0   0   0   0   0   0   4   0   4   0   0   0   0   0  10   0   7   0   0   0   0   0   0   0   0   0   1 102
   3   0   0   0   0   0   0   0   0   0   0   0   0   0   0   0   0   0   0   8   0   0   0   0   0   0   0   0   0   0   0   1 102
   3   0   0   0   0   0   0   0   0   0   7   9   0   0   0   0   0   0   0   0   0   0   0   0   0   0   0   0   0   0   0   1 102
   9   0   0   0   0   0   0   0   0   0   0   1   7   0   0   0   0   0   2   0   0   0   4   0   0   0   0   7   0   0   0   1 102
   8   0   0  10   0   0   0   0   0   0   0   0   0   0   0   0   0   0   0   0   0   0   0   0   0   0   0   0   9   0   0   1 102
  10   7   0   0   0   0   0   0   0   0   0   0   0   0   0   0   0   0   0   0   0   0   0   0   0   0   0   0   0   0   0   1 102
   9   0   0   0   0   0   0   0  10   5   0   0   0   0   6   0   0   0   0   0   0   0   0   4   0   0   0   0   0   0   0   1 102
  10   5   0   4   0   0   4   0   0   0   0   0   0   0   0   0   0   0   0   0  10   0   0   0   0   0   0   0   8   6   0   1 102
   2   0   0   0   0   0   0   0   0   0   0   5   0   7   0   0   5   0   9   0   0   0   0   0   0   0   0   6   0   0   0   1 102
   6   6   0   0   0   5   0   0   0   0   0   7   0   0   0   0   0   5   0   7   0   0   0   0   0   0   0   0   0   0   0   1 102
   6   0   0   0   0   0   0   0   0   0   0   0   0   0  10   0   0   0   0   8   0   4   0   0   7   9   0   0   0   0   0   1 102
   5   0   7   0   0   0   0   0   7   5   0   0   0   0   0   0   0   0   0   0   0   0   5   0   0   0   0   0   3   0   0   1 102
   9   0   0   0   0   0   5   0   0   0   0   0   8   0   7   0   0   0   0   0   0   0   0   0   0   0   0   0   0   0   0   1 102
   2   0   0   0   0   0   0   0   0   0   0   0   0   0   0   0   8   6   0   0   0   0   0   0   0   0   0   0   0   0   0   1 102
   1   9   0   0   0   0   0   0   4   0   0   9   0   0   0   6   0   0   0   6   0   0   0   0   0   7   0   0   6   0   6   1 102
  10   0   0   0   0   0   0   0   0   0   0   0   0   6   0   0   0   0   0   0   0   0   0   0   8   0   0   0   0   0   0   1 102
   9   4   0   4   0   0  10   0   0   0   0   0   0   0   0   0   0   0   0   3   0   0   0   0   0   0   5   0   0   5   0   1 102
   3   0   0   0   0   0   0   0   6   0   0   0   0   0   0   5   0   0   0   6   0   0   0   4   0   0   0   7   7   0   0   1 102
   1   0   0   0   0   0   0   0   0   0   0   0   0   6   9   0   0   0   0   0   0   0  10   0   0   0   0   0   0   0   0   1 102
   0   0   0   0   0   0   0   0   0   0   0   0   0   0   0   0   0   0   0   0   0   0   0   0   0   0   0   0   0   0   0   0 
